NAME : kroD100.33760.tour
COMMENT : Cost = 6768_33760
COMMENT : Found by LKH [Keld Helsgaun] Thu Nov 16 20:48:28 2017
TYPE : TOUR
DIMENSION : 104
TOUR_SECTION
1
50
94
32
97
98
49
70
89
90
17
11
23
42
22
58
29
36
67
75
7
74
61
52
8
66
38
34
101
27
24
41
39
43
4
44
60
62
37
51
19
92
48
2
100
30
35
93
71
88
102
15
16
18
25
20
56
95
26
87
55
5
53
73
104
81
46
76
80
72
57
31
78
99
45
33
68
14
65
86
85
40
83
3
64
77
54
91
79
13
103
69
96
82
47
12
28
21
10
9
6
59
63
84
-1
EOF
